p cnf 7230 17
5148 -5149 0
-2158 -4630 -5146 0
-2874 -4628 -5144 0
3948 4640 -5142 0
2158 -5147 0
2874 -5145 0
-3948 -5143 0
5146 5147 0
5144 5145 0
5142 5143 0
4630 -5147 0
4628 -5145 0
-4640 -5143 0
-3452 -3916 -4602 5149 0
4602 -5149 0
3916 -5149 0
3452 -5149 0
